27019
11,52,197,269,531,537,827,830,914,1143,1278,1361,1400,1418,1450,1454,1457,1506,1523,1673,1770,1800,1828,1918,1938,1992,2095,2137,2164,2268,2284,2501,2624,2675,2720,2744,2791,2896,2966,2974,3005,3023,3144,3149,3215,3216,3303,3320,3330,3352,3364,3396,3472,3477,3488,3513,3550,3584,3801,3819,3820,4026,4050,4090,4111,4140,4156,4226,4358,4419,4436,4483,4487,4512,4544,4648,4782,4818,4821
